p cnf 245 2639
-1 -190 0
-2 -191 0
-3 -192 0
-4 -193 0
-5 -194 0
-6 -195 0
-7 -196 0
-1 -36 0
-2 -37 0
-3 -38 0
-4 -39 0
-5 -40 0
-6 -41 0
-7 -42 0
-1 -148 0
-2 -149 0
-3 -150 0
-4 -151 0
-5 -152 0
-6 -153 0
-7 -154 0
-1 -22 0
-2 -23 0
-3 -24 0
-4 -25 0
-5 -26 0
-6 -27 0
-7 -28 0
-1 -43 0
-2 -44 0
-3 -45 0
-4 -46 0
-5 -47 0
-6 -48 0
-7 -49 0
-1 -218 0
-2 -219 0
-3 -220 0
-4 -221 0
-5 -222 0
-6 -223 0
-7 -224 0
-1 -78 0
-2 -79 0
-3 -80 0
-4 -81 0
-5 -82 0
-6 -83 0
-7 -84 0
-1 -92 0
-2 -93 0
-3 -94 0
-4 -95 0
-5 -96 0
-6 -97 0
-7 -98 0
-1 -141 0
-2 -142 0
-3 -143 0
-4 -144 0
-5 -145 0
-6 -146 0
-7 -147 0
-1 -204 0
-2 -205 0
-3 -206 0
-4 -207 0
-5 -208 0
-6 -209 0
-7 -210 0
-1 -50 0
-2 -51 0
-3 -52 0
-4 -53 0
-5 -54 0
-6 -55 0
-7 -56 0
-1 -183 0
-2 -184 0
-3 -185 0
-4 -186 0
-5 -187 0
-6 -188 0
-7 -189 0
-1 -99 0
-2 -100 0
-3 -101 0
-4 -102 0
-5 -103 0
-6 -104 0
-7 -105 0
-1 -113 0
-2 -114 0
-3 -115 0
-4 -116 0
-5 -117 0
-6 -118 0
-7 -119 0
-1 -232 0
-2 -233 0
-3 -234 0
-4 -235 0
-5 -236 0
-6 -237 0
-7 -238 0
-1 -225 0
-2 -226 0
-3 -227 0
-4 -228 0
-5 -229 0
-6 -230 0
-7 -231 0
-8 -15 0
-9 -16 0
-10 -17 0
-11 -18 0
-12 -19 0
-13 -20 0
-14 -21 0
-8 -176 0
-9 -177 0
-10 -178 0
-11 -179 0
-12 -180 0
-13 -181 0
-14 -182 0
-8 -155 0
-9 -156 0
-10 -157 0
-11 -158 0
-12 -159 0
-13 -160 0
-14 -161 0
-8 -169 0
-9 -170 0
-10 -171 0
-11 -172 0
-12 -173 0
-13 -174 0
-14 -175 0
-8 -134 0
-9 -135 0
-10 -136 0
-11 -137 0
-12 -138 0
-13 -139 0
-14 -140 0
-8 -106 0
-9 -107 0
-10 -108 0
-11 -109 0
-12 -110 0
-13 -111 0
-14 -112 0
-8 -197 0
-9 -198 0
-10 -199 0
-11 -200 0
-12 -201 0
-13 -202 0
-14 -203 0
-8 -211 0
-9 -212 0
-10 -213 0
-11 -214 0
-12 -215 0
-13 -216 0
-14 -217 0
-8 -148 0
-9 -149 0
-10 -150 0
-11 -151 0
-12 -152 0
-13 -153 0
-14 -154 0
-8 -43 0
-9 -44 0
-10 -45 0
-11 -46 0
-12 -47 0
-13 -48 0
-14 -49 0
-8 -127 0
-9 -128 0
-10 -129 0
-11 -130 0
-12 -131 0
-13 -132 0
-14 -133 0
-8 -29 0
-9 -30 0
-10 -31 0
-11 -32 0
-12 -33 0
-13 -34 0
-14 -35 0
-8 -99 0
-9 -100 0
-10 -101 0
-11 -102 0
-12 -103 0
-13 -104 0
-14 -105 0
-8 -162 0
-9 -163 0
-10 -164 0
-11 -165 0
-12 -166 0
-13 -167 0
-14 -168 0
-15 -176 0
-16 -177 0
-17 -178 0
-18 -179 0
-19 -180 0
-20 -181 0
-21 -182 0
-15 -106 0
-16 -107 0
-17 -108 0
-18 -109 0
-19 -110 0
-20 -111 0
-21 -112 0
-15 -155 0
-16 -156 0
-17 -157 0
-18 -158 0
-19 -159 0
-20 -160 0
-21 -161 0
-15 -197 0
-16 -198 0
-17 -199 0
-18 -200 0
-19 -201 0
-20 -202 0
-21 -203 0
-15 -127 0
-16 -128 0
-17 -129 0
-18 -130 0
-19 -131 0
-20 -132 0
-21 -133 0
-15 -211 0
-16 -212 0
-17 -213 0
-18 -214 0
-19 -215 0
-20 -216 0
-21 -217 0
-15 -57 0
-16 -58 0
-17 -59 0
-18 -60 0
-19 -61 0
-20 -62 0
-21 -63 0
-15 -169 0
-16 -170 0
-17 -171 0
-18 -172 0
-19 -173 0
-20 -174 0
-21 -175 0
-15 -120 0
-16 -121 0
-17 -122 0
-18 -123 0
-19 -124 0
-20 -125 0
-21 -126 0
-15 -134 0
-16 -135 0
-17 -136 0
-18 -137 0
-19 -138 0
-20 -139 0
-21 -140 0
-15 -85 0
-16 -86 0
-17 -87 0
-18 -88 0
-19 -89 0
-20 -90 0
-21 -91 0
-15 -64 0
-16 -65 0
-17 -66 0
-18 -67 0
-19 -68 0
-20 -69 0
-21 -70 0
-15 -29 0
-16 -30 0
-17 -31 0
-18 -32 0
-19 -33 0
-20 -34 0
-21 -35 0
-15 -162 0
-16 -163 0
-17 -164 0
-18 -165 0
-19 -166 0
-20 -167 0
-21 -168 0
-22 -169 0
-23 -170 0
-24 -171 0
-25 -172 0
-26 -173 0
-27 -174 0
-28 -175 0
-22 -190 0
-23 -191 0
-24 -192 0
-25 -193 0
-26 -194 0
-27 -195 0
-28 -196 0
-22 -36 0
-23 -37 0
-24 -38 0
-25 -39 0
-26 -40 0
-27 -41 0
-28 -42 0
-22 -148 0
-23 -149 0
-24 -150 0
-25 -151 0
-26 -152 0
-27 -153 0
-28 -154 0
-22 -43 0
-23 -44 0
-24 -45 0
-25 -46 0
-26 -47 0
-27 -48 0
-28 -49 0
-22 -218 0
-23 -219 0
-24 -220 0
-25 -221 0
-26 -222 0
-27 -223 0
-28 -224 0
-22 -92 0
-23 -93 0
-24 -94 0
-25 -95 0
-26 -96 0
-27 -97 0
-28 -98 0
-22 -99 0
-23 -100 0
-24 -101 0
-25 -102 0
-26 -103 0
-27 -104 0
-28 -105 0
-22 -78 0
-23 -79 0
-24 -80 0
-25 -81 0
-26 -82 0
-27 -83 0
-28 -84 0
-22 -141 0
-23 -142 0
-24 -143 0
-25 -144 0
-26 -145 0
-27 -146 0
-28 -147 0
-22 -134 0
-23 -135 0
-24 -136 0
-25 -137 0
-26 -138 0
-27 -139 0
-28 -140 0
-22 -183 0
-23 -184 0
-24 -185 0
-25 -186 0
-26 -187 0
-27 -188 0
-28 -189 0
-22 -29 0
-23 -30 0
-24 -31 0
-25 -32 0
-26 -33 0
-27 -34 0
-28 -35 0
-22 -204 0
-23 -205 0
-24 -206 0
-25 -207 0
-26 -208 0
-27 -209 0
-28 -210 0
-22 -162 0
-23 -163 0
-24 -164 0
-25 -165 0
-26 -166 0
-27 -167 0
-28 -168 0
-29 -176 0
-30 -177 0
-31 -178 0
-32 -179 0
-33 -180 0
-34 -181 0
-35 -182 0
-29 -106 0
-30 -107 0
-31 -108 0
-32 -109 0
-33 -110 0
-34 -111 0
-35 -112 0
-29 -169 0
-30 -170 0
-31 -171 0
-32 -172 0
-33 -173 0
-34 -174 0
-35 -175 0
-29 -120 0
-30 -121 0
-31 -122 0
-32 -123 0
-33 -124 0
-34 -125 0
-35 -126 0
-29 -190 0
-30 -191 0
-31 -192 0
-32 -193 0
-33 -194 0
-34 -195 0
-35 -196 0
-29 -36 0
-30 -37 0
-31 -38 0
-32 -39 0
-33 -40 0
-34 -41 0
-35 -42 0
-29 -43 0
-30 -44 0
-31 -45 0
-32 -46 0
-33 -47 0
-34 -48 0
-35 -49 0
-29 -92 0
-30 -93 0
-31 -94 0
-32 -95 0
-33 -96 0
-34 -97 0
-35 -98 0
-29 -134 0
-30 -135 0
-31 -136 0
-32 -137 0
-33 -138 0
-34 -139 0
-35 -140 0
-29 -64 0
-30 -65 0
-31 -66 0
-32 -67 0
-33 -68 0
-34 -69 0
-35 -70 0
-29 -127 0
-30 -128 0
-31 -129 0
-32 -130 0
-33 -131 0
-34 -132 0
-35 -133 0
-29 -99 0
-30 -100 0
-31 -101 0
-32 -102 0
-33 -103 0
-34 -104 0
-35 -105 0
-29 -232 0
-30 -233 0
-31 -234 0
-32 -235 0
-33 -236 0
-34 -237 0
-35 -238 0
-36 -106 0
-37 -107 0
-38 -108 0
-39 -109 0
-40 -110 0
-41 -111 0
-42 -112 0
-36 -239 0
-37 -240 0
-38 -241 0
-39 -242 0
-40 -243 0
-41 -244 0
-42 -245 0
-36 -120 0
-37 -121 0
-38 -122 0
-39 -123 0
-40 -124 0
-41 -125 0
-42 -126 0
-36 -190 0
-37 -191 0
-38 -192 0
-39 -193 0
-40 -194 0
-41 -195 0
-42 -196 0
-36 -92 0
-37 -93 0
-38 -94 0
-39 -95 0
-40 -96 0
-41 -97 0
-42 -98 0
-36 -232 0
-37 -233 0
-38 -234 0
-39 -235 0
-40 -236 0
-41 -237 0
-42 -238 0
-36 -204 0
-37 -205 0
-38 -206 0
-39 -207 0
-40 -208 0
-41 -209 0
-42 -210 0
-36 -141 0
-37 -142 0
-38 -143 0
-39 -144 0
-40 -145 0
-41 -146 0
-42 -147 0
-36 -64 0
-37 -65 0
-38 -66 0
-39 -67 0
-40 -68 0
-41 -69 0
-42 -70 0
-36 -99 0
-37 -100 0
-38 -101 0
-39 -102 0
-40 -103 0
-41 -104 0
-42 -105 0
-36 -225 0
-37 -226 0
-38 -227 0
-39 -228 0
-40 -229 0
-41 -230 0
-42 -231 0
-43 -176 0
-44 -177 0
-45 -178 0
-46 -179 0
-47 -180 0
-48 -181 0
-49 -182 0
-43 -155 0
-44 -156 0
-45 -157 0
-46 -158 0
-47 -159 0
-48 -160 0
-49 -161 0
-43 -169 0
-44 -170 0
-45 -171 0
-46 -172 0
-47 -173 0
-48 -174 0
-49 -175 0
-43 -190 0
-44 -191 0
-45 -192 0
-46 -193 0
-47 -194 0
-48 -195 0
-49 -196 0
-43 -148 0
-44 -149 0
-45 -150 0
-46 -151 0
-47 -152 0
-48 -153 0
-49 -154 0
-43 -134 0
-44 -135 0
-45 -136 0
-46 -137 0
-47 -138 0
-48 -139 0
-49 -140 0
-43 -99 0
-44 -100 0
-45 -101 0
-46 -102 0
-47 -103 0
-48 -104 0
-49 -105 0
-43 -218 0
-44 -219 0
-45 -220 0
-46 -221 0
-47 -222 0
-48 -223 0
-49 -224 0
-43 -92 0
-44 -93 0
-45 -94 0
-46 -95 0
-47 -96 0
-48 -97 0
-49 -98 0
-43 -183 0
-44 -184 0
-45 -185 0
-46 -186 0
-47 -187 0
-48 -188 0
-49 -189 0
-43 -162 0
-44 -163 0
-45 -164 0
-46 -165 0
-47 -166 0
-48 -167 0
-49 -168 0
-50 -155 0
-51 -156 0
-52 -157 0
-53 -158 0
-54 -159 0
-55 -160 0
-56 -161 0
-50 -197 0
-51 -198 0
-52 -199 0
-53 -200 0
-54 -201 0
-55 -202 0
-56 -203 0
-50 -211 0
-51 -212 0
-52 -213 0
-53 -214 0
-54 -215 0
-55 -216 0
-56 -217 0
-50 -71 0
-51 -72 0
-52 -73 0
-53 -74 0
-54 -75 0
-55 -76 0
-56 -77 0
-50 -57 0
-51 -58 0
-52 -59 0
-53 -60 0
-54 -61 0
-55 -62 0
-56 -63 0
-50 -239 0
-51 -240 0
-52 -241 0
-53 -242 0
-54 -243 0
-55 -244 0
-56 -245 0
-50 -148 0
-51 -149 0
-52 -150 0
-53 -151 0
-54 -152 0
-55 -153 0
-56 -154 0
-50 -218 0
-51 -219 0
-52 -220 0
-53 -221 0
-54 -222 0
-55 -223 0
-56 -224 0
-50 -78 0
-51 -79 0
-52 -80 0
-53 -81 0
-54 -82 0
-55 -83 0
-56 -84 0
-50 -141 0
-51 -142 0
-52 -143 0
-53 -144 0
-54 -145 0
-55 -146 0
-56 -147 0
-50 -85 0
-51 -86 0
-52 -87 0
-53 -88 0
-54 -89 0
-55 -90 0
-56 -91 0
-50 -183 0
-51 -184 0
-52 -185 0
-53 -186 0
-54 -187 0
-55 -188 0
-56 -189 0
-50 -113 0
-51 -114 0
-52 -115 0
-53 -116 0
-54 -117 0
-55 -118 0
-56 -119 0
-50 -162 0
-51 -163 0
-52 -164 0
-53 -165 0
-54 -166 0
-55 -167 0
-56 -168 0
-50 -225 0
-51 -226 0
-52 -227 0
-53 -228 0
-54 -229 0
-55 -230 0
-56 -231 0
-57 -106 0
-58 -107 0
-59 -108 0
-60 -109 0
-61 -110 0
-62 -111 0
-63 -112 0
-57 -155 0
-58 -156 0
-59 -157 0
-60 -158 0
-61 -159 0
-62 -160 0
-63 -161 0
-57 -197 0
-58 -198 0
-59 -199 0
-60 -200 0
-61 -201 0
-62 -202 0
-63 -203 0
-57 -211 0
-58 -212 0
-59 -213 0
-60 -214 0
-61 -215 0
-62 -216 0
-63 -217 0
-57 -71 0
-58 -72 0
-59 -73 0
-60 -74 0
-61 -75 0
-62 -76 0
-63 -77 0
-57 -239 0
-58 -240 0
-59 -241 0
-60 -242 0
-61 -243 0
-62 -244 0
-63 -245 0
-57 -85 0
-58 -86 0
-59 -87 0
-60 -88 0
-61 -89 0
-62 -90 0
-63 -91 0
-57 -64 0
-58 -65 0
-59 -66 0
-60 -67 0
-61 -68 0
-62 -69 0
-63 -70 0
-57 -127 0
-58 -128 0
-59 -129 0
-60 -130 0
-61 -131 0
-62 -132 0
-63 -133 0
-57 -120 0
-58 -121 0
-59 -122 0
-60 -123 0
-61 -124 0
-62 -125 0
-63 -126 0
-57 -113 0
-58 -114 0
-59 -115 0
-60 -116 0
-61 -117 0
-62 -118 0
-63 -119 0
-57 -232 0
-58 -233 0
-59 -234 0
-60 -235 0
-61 -236 0
-62 -237 0
-63 -238 0
-57 -225 0
-58 -226 0
-59 -227 0
-60 -228 0
-61 -229 0
-62 -230 0
-63 -231 0
-64 -176 0
-65 -177 0
-66 -178 0
-67 -179 0
-68 -180 0
-69 -181 0
-70 -182 0
-64 -106 0
-65 -107 0
-66 -108 0
-67 -109 0
-68 -110 0
-69 -111 0
-70 -112 0
-64 -197 0
-65 -198 0
-66 -199 0
-67 -200 0
-68 -201 0
-69 -202 0
-70 -203 0
-64 -71 0
-65 -72 0
-66 -73 0
-67 -74 0
-68 -75 0
-69 -76 0
-70 -77 0
-64 -239 0
-65 -240 0
-66 -241 0
-67 -242 0
-68 -243 0
-69 -244 0
-70 -245 0
-64 -120 0
-65 -121 0
-66 -122 0
-67 -123 0
-68 -124 0
-69 -125 0
-70 -126 0
-64 -190 0
-65 -191 0
-66 -192 0
-67 -193 0
-68 -194 0
-69 -195 0
-70 -196 0
-64 -85 0
-65 -86 0
-66 -87 0
-67 -88 0
-68 -89 0
-69 -90 0
-70 -91 0
-64 -127 0
-65 -128 0
-66 -129 0
-67 -130 0
-68 -131 0
-69 -132 0
-70 -133 0
-64 -232 0
-65 -233 0
-66 -234 0
-67 -235 0
-68 -236 0
-69 -237 0
-70 -238 0
-64 -204 0
-65 -205 0
-66 -206 0
-67 -207 0
-68 -208 0
-69 -209 0
-70 -210 0
-64 -225 0
-65 -226 0
-66 -227 0
-67 -228 0
-68 -229 0
-69 -230 0
-70 -231 0
-71 -197 0
-72 -198 0
-73 -199 0
-74 -200 0
-75 -201 0
-76 -202 0
-77 -203 0
-71 -211 0
-72 -212 0
-73 -213 0
-74 -214 0
-75 -215 0
-76 -216 0
-77 -217 0
-71 -239 0
-72 -240 0
-73 -241 0
-74 -242 0
-75 -243 0
-76 -244 0
-77 -245 0
-71 -85 0
-72 -86 0
-73 -87 0
-74 -88 0
-75 -89 0
-76 -90 0
-77 -91 0
-71 -113 0
-72 -114 0
-73 -115 0
-74 -116 0
-75 -117 0
-76 -118 0
-77 -119 0
-71 -225 0
-72 -226 0
-73 -227 0
-74 -228 0
-75 -229 0
-76 -230 0
-77 -231 0
-71 -78 0
-72 -79 0
-73 -80 0
-74 -81 0
-75 -82 0
-76 -83 0
-77 -84 0
-71 -141 0
-72 -142 0
-73 -143 0
-74 -144 0
-75 -145 0
-76 -146 0
-77 -147 0
-71 -183 0
-72 -184 0
-73 -185 0
-74 -186 0
-75 -187 0
-76 -188 0
-77 -189 0
-71 -127 0
-72 -128 0
-73 -129 0
-74 -130 0
-75 -131 0
-76 -132 0
-77 -133 0
-71 -232 0
-72 -233 0
-73 -234 0
-74 -235 0
-75 -236 0
-76 -237 0
-77 -238 0
-71 -204 0
-72 -205 0
-73 -206 0
-74 -207 0
-75 -208 0
-76 -209 0
-77 -210 0
-78 -211 0
-79 -212 0
-80 -213 0
-81 -214 0
-82 -215 0
-83 -216 0
-84 -217 0
-78 -148 0
-79 -149 0
-80 -150 0
-81 -151 0
-82 -152 0
-83 -153 0
-84 -154 0
-78 -218 0
-79 -219 0
-80 -220 0
-81 -221 0
-82 -222 0
-83 -223 0
-84 -224 0
-78 -141 0
-79 -142 0
-80 -143 0
-81 -144 0
-82 -145 0
-83 -146 0
-84 -147 0
-78 -183 0
-79 -184 0
-80 -185 0
-81 -186 0
-82 -187 0
-83 -188 0
-84 -189 0
-78 -113 0
-79 -114 0
-80 -115 0
-81 -116 0
-82 -117 0
-83 -118 0
-84 -119 0
-78 -92 0
-79 -93 0
-80 -94 0
-81 -95 0
-82 -96 0
-83 -97 0
-84 -98 0
-78 -85 0
-79 -86 0
-80 -87 0
-81 -88 0
-82 -89 0
-83 -90 0
-84 -91 0
-78 -204 0
-79 -205 0
-80 -206 0
-81 -207 0
-82 -208 0
-83 -209 0
-84 -210 0
-78 -162 0
-79 -163 0
-80 -164 0
-81 -165 0
-82 -166 0
-83 -167 0
-84 -168 0
-78 -225 0
-79 -226 0
-80 -227 0
-81 -228 0
-82 -229 0
-83 -230 0
-84 -231 0
-85 -155 0
-86 -156 0
-87 -157 0
-88 -158 0
-89 -159 0
-90 -160 0
-91 -161 0
-85 -197 0
-86 -198 0
-87 -199 0
-88 -200 0
-89 -201 0
-90 -202 0
-91 -203 0
-85 -211 0
-86 -212 0
-87 -213 0
-88 -214 0
-89 -215 0
-90 -216 0
-91 -217 0
-85 -239 0
-86 -240 0
-87 -241 0
-88 -242 0
-89 -243 0
-90 -244 0
-91 -245 0
-85 -183 0
-86 -184 0
-87 -185 0
-88 -186 0
-89 -187 0
-90 -188 0
-91 -189 0
-85 -127 0
-86 -128 0
-87 -129 0
-88 -130 0
-89 -131 0
-90 -132 0
-91 -133 0
-85 -113 0
-86 -114 0
-87 -115 0
-88 -116 0
-89 -117 0
-90 -118 0
-91 -119 0
-85 -162 0
-86 -163 0
-87 -164 0
-88 -165 0
-89 -166 0
-90 -167 0
-91 -168 0
-85 -225 0
-86 -226 0
-87 -227 0
-88 -228 0
-89 -229 0
-90 -230 0
-91 -231 0
-92 -169 0
-93 -170 0
-94 -171 0
-95 -172 0
-96 -173 0
-97 -174 0
-98 -175 0
-92 -120 0
-93 -121 0
-94 -122 0
-95 -123 0
-96 -124 0
-97 -125 0
-98 -126 0
-92 -190 0
-93 -191 0
-94 -192 0
-95 -193 0
-96 -194 0
-97 -195 0
-98 -196 0
-92 -148 0
-93 -149 0
-94 -150 0
-95 -151 0
-96 -152 0
-97 -153 0
-98 -154 0
-92 -218 0
-93 -219 0
-94 -220 0
-95 -221 0
-96 -222 0
-97 -223 0
-98 -224 0
-92 -99 0
-93 -100 0
-94 -101 0
-95 -102 0
-96 -103 0
-97 -104 0
-98 -105 0
-92 -204 0
-93 -205 0
-94 -206 0
-95 -207 0
-96 -208 0
-97 -209 0
-98 -210 0
-92 -141 0
-93 -142 0
-94 -143 0
-95 -144 0
-96 -145 0
-97 -146 0
-98 -147 0
-92 -232 0
-93 -233 0
-94 -234 0
-95 -235 0
-96 -236 0
-97 -237 0
-98 -238 0
-92 -225 0
-93 -226 0
-94 -227 0
-95 -228 0
-96 -229 0
-97 -230 0
-98 -231 0
-99 -176 0
-100 -177 0
-101 -178 0
-102 -179 0
-103 -180 0
-104 -181 0
-105 -182 0
-99 -106 0
-100 -107 0
-101 -108 0
-102 -109 0
-103 -110 0
-104 -111 0
-105 -112 0
-99 -169 0
-100 -170 0
-101 -171 0
-102 -172 0
-103 -173 0
-104 -174 0
-105 -175 0
-99 -120 0
-100 -121 0
-101 -122 0
-102 -123 0
-103 -124 0
-104 -125 0
-105 -126 0
-99 -190 0
-100 -191 0
-101 -192 0
-102 -193 0
-103 -194 0
-104 -195 0
-105 -196 0
-99 -148 0
-100 -149 0
-101 -150 0
-102 -151 0
-103 -152 0
-104 -153 0
-105 -154 0
-99 -218 0
-100 -219 0
-101 -220 0
-102 -221 0
-103 -222 0
-104 -223 0
-105 -224 0
-99 -134 0
-100 -135 0
-101 -136 0
-102 -137 0
-103 -138 0
-104 -139 0
-105 -140 0
-99 -204 0
-100 -205 0
-101 -206 0
-102 -207 0
-103 -208 0
-104 -209 0
-105 -210 0
-106 -176 0
-107 -177 0
-108 -178 0
-109 -179 0
-110 -180 0
-111 -181 0
-112 -182 0
-106 -120 0
-107 -121 0
-108 -122 0
-109 -123 0
-110 -124 0
-111 -125 0
-112 -126 0
-106 -127 0
-107 -128 0
-108 -129 0
-109 -130 0
-110 -131 0
-111 -132 0
-112 -133 0
-106 -155 0
-107 -156 0
-108 -157 0
-109 -158 0
-110 -159 0
-111 -160 0
-112 -161 0
-106 -197 0
-107 -198 0
-108 -199 0
-109 -200 0
-110 -201 0
-111 -202 0
-112 -203 0
-106 -239 0
-107 -240 0
-108 -241 0
-109 -242 0
-110 -243 0
-111 -244 0
-112 -245 0
-106 -169 0
-107 -170 0
-108 -171 0
-109 -172 0
-110 -173 0
-111 -174 0
-112 -175 0
-106 -190 0
-107 -191 0
-108 -192 0
-109 -193 0
-110 -194 0
-111 -195 0
-112 -196 0
-106 -232 0
-107 -233 0
-108 -234 0
-109 -235 0
-110 -236 0
-111 -237 0
-112 -238 0
-113 -211 0
-114 -212 0
-115 -213 0
-116 -214 0
-117 -215 0
-118 -216 0
-119 -217 0
-113 -239 0
-114 -240 0
-115 -241 0
-116 -242 0
-117 -243 0
-118 -244 0
-119 -245 0
-113 -218 0
-114 -219 0
-115 -220 0
-116 -221 0
-117 -222 0
-118 -223 0
-119 -224 0
-113 -141 0
-114 -142 0
-115 -143 0
-116 -144 0
-117 -145 0
-118 -146 0
-119 -147 0
-113 -183 0
-114 -184 0
-115 -185 0
-116 -186 0
-117 -187 0
-118 -188 0
-119 -189 0
-113 -225 0
-114 -226 0
-115 -227 0
-116 -228 0
-117 -229 0
-118 -230 0
-119 -231 0
-113 -232 0
-114 -233 0
-115 -234 0
-116 -235 0
-117 -236 0
-118 -237 0
-119 -238 0
-113 -204 0
-114 -205 0
-115 -206 0
-116 -207 0
-117 -208 0
-118 -209 0
-119 -210 0
-120 -176 0
-121 -177 0
-122 -178 0
-123 -179 0
-124 -180 0
-125 -181 0
-126 -182 0
-120 -239 0
-121 -240 0
-122 -241 0
-123 -242 0
-124 -243 0
-125 -244 0
-126 -245 0
-120 -169 0
-121 -170 0
-122 -171 0
-123 -172 0
-124 -173 0
-125 -174 0
-126 -175 0
-120 -190 0
-121 -191 0
-122 -192 0
-123 -193 0
-124 -194 0
-125 -195 0
-126 -196 0
-120 -232 0
-121 -233 0
-122 -234 0
-123 -235 0
-124 -236 0
-125 -237 0
-126 -238 0
-120 -127 0
-121 -128 0
-122 -129 0
-123 -130 0
-124 -131 0
-125 -132 0
-126 -133 0
-120 -204 0
-121 -205 0
-122 -206 0
-123 -207 0
-124 -208 0
-125 -209 0
-126 -210 0
-120 -225 0
-121 -226 0
-122 -227 0
-123 -228 0
-124 -229 0
-125 -230 0
-126 -231 0
-127 -176 0
-128 -177 0
-129 -178 0
-130 -179 0
-131 -180 0
-132 -181 0
-133 -182 0
-127 -155 0
-128 -156 0
-129 -157 0
-130 -158 0
-131 -159 0
-132 -160 0
-133 -161 0
-127 -197 0
-128 -198 0
-129 -199 0
-130 -200 0
-131 -201 0
-132 -202 0
-133 -203 0
-127 -211 0
-128 -212 0
-129 -213 0
-130 -214 0
-131 -215 0
-132 -216 0
-133 -217 0
-127 -239 0
-128 -240 0
-129 -241 0
-130 -242 0
-131 -243 0
-132 -244 0
-133 -245 0
-127 -232 0
-128 -233 0
-129 -234 0
-130 -235 0
-131 -236 0
-132 -237 0
-133 -238 0
-134 -176 0
-135 -177 0
-136 -178 0
-137 -179 0
-138 -180 0
-139 -181 0
-140 -182 0
-134 -155 0
-135 -156 0
-136 -157 0
-137 -158 0
-138 -159 0
-139 -160 0
-140 -161 0
-134 -197 0
-135 -198 0
-136 -199 0
-137 -200 0
-138 -201 0
-139 -202 0
-140 -203 0
-134 -211 0
-135 -212 0
-136 -213 0
-137 -214 0
-138 -215 0
-139 -216 0
-140 -217 0
-134 -169 0
-135 -170 0
-136 -171 0
-137 -172 0
-138 -173 0
-139 -174 0
-140 -175 0
-134 -148 0
-135 -149 0
-136 -150 0
-137 -151 0
-138 -152 0
-139 -153 0
-140 -154 0
-134 -218 0
-135 -219 0
-136 -220 0
-137 -221 0
-138 -222 0
-139 -223 0
-140 -224 0
-134 -162 0
-135 -163 0
-136 -164 0
-137 -165 0
-138 -166 0
-139 -167 0
-140 -168 0
-134 -183 0
-135 -184 0
-136 -185 0
-137 -186 0
-138 -187 0
-139 -188 0
-140 -189 0
-141 -239 0
-142 -240 0
-143 -241 0
-144 -242 0
-145 -243 0
-146 -244 0
-147 -245 0
-141 -218 0
-142 -219 0
-143 -220 0
-144 -221 0
-145 -222 0
-146 -223 0
-147 -224 0
-141 -204 0
-142 -205 0
-143 -206 0
-144 -207 0
-145 -208 0
-146 -209 0
-147 -210 0
-141 -225 0
-142 -226 0
-143 -227 0
-144 -228 0
-145 -229 0
-146 -230 0
-147 -231 0
-141 -183 0
-142 -184 0
-143 -185 0
-144 -186 0
-145 -187 0
-146 -188 0
-147 -189 0
-141 -232 0
-142 -233 0
-143 -234 0
-144 -235 0
-145 -236 0
-146 -237 0
-147 -238 0
-148 -155 0
-149 -156 0
-150 -157 0
-151 -158 0
-152 -159 0
-153 -160 0
-154 -161 0
-148 -211 0
-149 -212 0
-150 -213 0
-151 -214 0
-152 -215 0
-153 -216 0
-154 -217 0
-148 -169 0
-149 -170 0
-150 -171 0
-151 -172 0
-152 -173 0
-153 -174 0
-154 -175 0
-148 -218 0
-149 -219 0
-150 -220 0
-151 -221 0
-152 -222 0
-153 -223 0
-154 -224 0
-148 -183 0
-149 -184 0
-150 -185 0
-151 -186 0
-152 -187 0
-153 -188 0
-154 -189 0
-148 -162 0
-149 -163 0
-150 -164 0
-151 -165 0
-152 -166 0
-153 -167 0
-154 -168 0
-155 -176 0
-156 -177 0
-157 -178 0
-158 -179 0
-159 -180 0
-160 -181 0
-161 -182 0
-155 -197 0
-156 -198 0
-157 -199 0
-158 -200 0
-159 -201 0
-160 -202 0
-161 -203 0
-155 -211 0
-156 -212 0
-157 -213 0
-158 -214 0
-159 -215 0
-160 -216 0
-161 -217 0
-155 -162 0
-156 -163 0
-157 -164 0
-158 -165 0
-159 -166 0
-160 -167 0
-161 -168 0
-155 -169 0
-156 -170 0
-157 -171 0
-158 -172 0
-159 -173 0
-160 -174 0
-161 -175 0
-155 -183 0
-156 -184 0
-157 -185 0
-158 -186 0
-159 -187 0
-160 -188 0
-161 -189 0
-162 -197 0
-163 -198 0
-164 -199 0
-165 -200 0
-166 -201 0
-167 -202 0
-168 -203 0
-162 -211 0
-163 -212 0
-164 -213 0
-165 -214 0
-166 -215 0
-167 -216 0
-168 -217 0
-162 -169 0
-163 -170 0
-164 -171 0
-165 -172 0
-166 -173 0
-167 -174 0
-168 -175 0
-162 -218 0
-163 -219 0
-164 -220 0
-165 -221 0
-166 -222 0
-167 -223 0
-168 -224 0
-162 -183 0
-163 -184 0
-164 -185 0
-165 -186 0
-166 -187 0
-167 -188 0
-168 -189 0
-169 -176 0
-170 -177 0
-171 -178 0
-172 -179 0
-173 -180 0
-174 -181 0
-175 -182 0
-169 -190 0
-170 -191 0
-171 -192 0
-172 -193 0
-173 -194 0
-174 -195 0
-175 -196 0
-176 -197 0
-177 -198 0
-178 -199 0
-179 -200 0
-180 -201 0
-181 -202 0
-182 -203 0
-176 -190 0
-177 -191 0
-178 -192 0
-179 -193 0
-180 -194 0
-181 -195 0
-182 -196 0
-183 -197 0
-184 -198 0
-185 -199 0
-186 -200 0
-187 -201 0
-188 -202 0
-189 -203 0
-183 -211 0
-184 -212 0
-185 -213 0
-186 -214 0
-187 -215 0
-188 -216 0
-189 -217 0
-183 -218 0
-184 -219 0
-185 -220 0
-186 -221 0
-187 -222 0
-188 -223 0
-189 -224 0
-190 -232 0
-191 -233 0
-192 -234 0
-193 -235 0
-194 -236 0
-195 -237 0
-196 -238 0
-190 -204 0
-191 -205 0
-192 -206 0
-193 -207 0
-194 -208 0
-195 -209 0
-196 -210 0
-197 -211 0
-198 -212 0
-199 -213 0
-200 -214 0
-201 -215 0
-202 -216 0
-203 -217 0
-197 -239 0
-198 -240 0
-199 -241 0
-200 -242 0
-201 -243 0
-202 -244 0
-203 -245 0
-204 -239 0
-205 -240 0
-206 -241 0
-207 -242 0
-208 -243 0
-209 -244 0
-210 -245 0
-204 -218 0
-205 -219 0
-206 -220 0
-207 -221 0
-208 -222 0
-209 -223 0
-210 -224 0
-204 -232 0
-205 -233 0
-206 -234 0
-207 -235 0
-208 -236 0
-209 -237 0
-210 -238 0
-204 -225 0
-205 -226 0
-206 -227 0
-207 -228 0
-208 -229 0
-209 -230 0
-210 -231 0
-211 -218 0
-212 -219 0
-213 -220 0
-214 -221 0
-215 -222 0
-216 -223 0
-217 -224 0
-225 -239 0
-226 -240 0
-227 -241 0
-228 -242 0
-229 -243 0
-230 -244 0
-231 -245 0
-225 -232 0
-226 -233 0
-227 -234 0
-228 -235 0
-229 -236 0
-230 -237 0
-231 -238 0
-232 -239 0
-233 -240 0
-234 -241 0
-235 -242 0
-236 -243 0
-237 -244 0
-238 -245 0
1 2 3 4 5 6 7 0
-1 -2 0
-1 -3 0
-1 -4 0
-1 -5 0
-1 -6 0
-1 -7 0
-2 -3 0
-2 -4 0
-2 -5 0
-2 -6 0
-2 -7 0
-3 -4 0
-3 -5 0
-3 -6 0
-3 -7 0
-4 -5 0
-4 -6 0
-4 -7 0
-5 -6 0
-5 -7 0
-6 -7 0
8 9 10 11 12 13 14 0
-8 -9 0
-8 -10 0
-8 -11 0
-8 -12 0
-8 -13 0
-8 -14 0
-9 -10 0
-9 -11 0
-9 -12 0
-9 -13 0
-9 -14 0
-10 -11 0
-10 -12 0
-10 -13 0
-10 -14 0
-11 -12 0
-11 -13 0
-11 -14 0
-12 -13 0
-12 -14 0
-13 -14 0
15 16 17 18 19 20 21 0
-15 -16 0
-15 -17 0
-15 -18 0
-15 -19 0
-15 -20 0
-15 -21 0
-16 -17 0
-16 -18 0
-16 -19 0
-16 -20 0
-16 -21 0
-17 -18 0
-17 -19 0
-17 -20 0
-17 -21 0
-18 -19 0
-18 -20 0
-18 -21 0
-19 -20 0
-19 -21 0
-20 -21 0
22 23 24 25 26 27 28 0
-22 -23 0
-22 -24 0
-22 -25 0
-22 -26 0
-22 -27 0
-22 -28 0
-23 -24 0
-23 -25 0
-23 -26 0
-23 -27 0
-23 -28 0
-24 -25 0
-24 -26 0
-24 -27 0
-24 -28 0
-25 -26 0
-25 -27 0
-25 -28 0
-26 -27 0
-26 -28 0
-27 -28 0
29 30 31 32 33 34 35 0
-29 -30 0
-29 -31 0
-29 -32 0
-29 -33 0
-29 -34 0
-29 -35 0
-30 -31 0
-30 -32 0
-30 -33 0
-30 -34 0
-30 -35 0
-31 -32 0
-31 -33 0
-31 -34 0
-31 -35 0
-32 -33 0
-32 -34 0
-32 -35 0
-33 -34 0
-33 -35 0
-34 -35 0
36 37 38 39 40 41 42 0
-36 -37 0
-36 -38 0
-36 -39 0
-36 -40 0
-36 -41 0
-36 -42 0
-37 -38 0
-37 -39 0
-37 -40 0
-37 -41 0
-37 -42 0
-38 -39 0
-38 -40 0
-38 -41 0
-38 -42 0
-39 -40 0
-39 -41 0
-39 -42 0
-40 -41 0
-40 -42 0
-41 -42 0
43 44 45 46 47 48 49 0
-43 -44 0
-43 -45 0
-43 -46 0
-43 -47 0
-43 -48 0
-43 -49 0
-44 -45 0
-44 -46 0
-44 -47 0
-44 -48 0
-44 -49 0
-45 -46 0
-45 -47 0
-45 -48 0
-45 -49 0
-46 -47 0
-46 -48 0
-46 -49 0
-47 -48 0
-47 -49 0
-48 -49 0
50 51 52 53 54 55 56 0
-50 -51 0
-50 -52 0
-50 -53 0
-50 -54 0
-50 -55 0
-50 -56 0
-51 -52 0
-51 -53 0
-51 -54 0
-51 -55 0
-51 -56 0
-52 -53 0
-52 -54 0
-52 -55 0
-52 -56 0
-53 -54 0
-53 -55 0
-53 -56 0
-54 -55 0
-54 -56 0
-55 -56 0
57 58 59 60 61 62 63 0
-57 -58 0
-57 -59 0
-57 -60 0
-57 -61 0
-57 -62 0
-57 -63 0
-58 -59 0
-58 -60 0
-58 -61 0
-58 -62 0
-58 -63 0
-59 -60 0
-59 -61 0
-59 -62 0
-59 -63 0
-60 -61 0
-60 -62 0
-60 -63 0
-61 -62 0
-61 -63 0
-62 -63 0
64 65 66 67 68 69 70 0
-64 -65 0
-64 -66 0
-64 -67 0
-64 -68 0
-64 -69 0
-64 -70 0
-65 -66 0
-65 -67 0
-65 -68 0
-65 -69 0
-65 -70 0
-66 -67 0
-66 -68 0
-66 -69 0
-66 -70 0
-67 -68 0
-67 -69 0
-67 -70 0
-68 -69 0
-68 -70 0
-69 -70 0
71 72 73 74 75 76 77 0
-71 -72 0
-71 -73 0
-71 -74 0
-71 -75 0
-71 -76 0
-71 -77 0
-72 -73 0
-72 -74 0
-72 -75 0
-72 -76 0
-72 -77 0
-73 -74 0
-73 -75 0
-73 -76 0
-73 -77 0
-74 -75 0
-74 -76 0
-74 -77 0
-75 -76 0
-75 -77 0
-76 -77 0
78 79 80 81 82 83 84 0
-78 -79 0
-78 -80 0
-78 -81 0
-78 -82 0
-78 -83 0
-78 -84 0
-79 -80 0
-79 -81 0
-79 -82 0
-79 -83 0
-79 -84 0
-80 -81 0
-80 -82 0
-80 -83 0
-80 -84 0
-81 -82 0
-81 -83 0
-81 -84 0
-82 -83 0
-82 -84 0
-83 -84 0
85 86 87 88 89 90 91 0
-85 -86 0
-85 -87 0
-85 -88 0
-85 -89 0
-85 -90 0
-85 -91 0
-86 -87 0
-86 -88 0
-86 -89 0
-86 -90 0
-86 -91 0
-87 -88 0
-87 -89 0
-87 -90 0
-87 -91 0
-88 -89 0
-88 -90 0
-88 -91 0
-89 -90 0
-89 -91 0
-90 -91 0
92 93 94 95 96 97 98 0
-92 -93 0
-92 -94 0
-92 -95 0
-92 -96 0
-92 -97 0
-92 -98 0
-93 -94 0
-93 -95 0
-93 -96 0
-93 -97 0
-93 -98 0
-94 -95 0
-94 -96 0
-94 -97 0
-94 -98 0
-95 -96 0
-95 -97 0
-95 -98 0
-96 -97 0
-96 -98 0
-97 -98 0
99 100 101 102 103 104 105 0
-99 -100 0
-99 -101 0
-99 -102 0
-99 -103 0
-99 -104 0
-99 -105 0
-100 -101 0
-100 -102 0
-100 -103 0
-100 -104 0
-100 -105 0
-101 -102 0
-101 -103 0
-101 -104 0
-101 -105 0
-102 -103 0
-102 -104 0
-102 -105 0
-103 -104 0
-103 -105 0
-104 -105 0
106 107 108 109 110 111 112 0
-106 -107 0
-106 -108 0
-106 -109 0
-106 -110 0
-106 -111 0
-106 -112 0
-107 -108 0
-107 -109 0
-107 -110 0
-107 -111 0
-107 -112 0
-108 -109 0
-108 -110 0
-108 -111 0
-108 -112 0
-109 -110 0
-109 -111 0
-109 -112 0
-110 -111 0
-110 -112 0
-111 -112 0
113 114 115 116 117 118 119 0
-113 -114 0
-113 -115 0
-113 -116 0
-113 -117 0
-113 -118 0
-113 -119 0
-114 -115 0
-114 -116 0
-114 -117 0
-114 -118 0
-114 -119 0
-115 -116 0
-115 -117 0
-115 -118 0
-115 -119 0
-116 -117 0
-116 -118 0
-116 -119 0
-117 -118 0
-117 -119 0
-118 -119 0
120 121 122 123 124 125 126 0
-120 -121 0
-120 -122 0
-120 -123 0
-120 -124 0
-120 -125 0
-120 -126 0
-121 -122 0
-121 -123 0
-121 -124 0
-121 -125 0
-121 -126 0
-122 -123 0
-122 -124 0
-122 -125 0
-122 -126 0
-123 -124 0
-123 -125 0
-123 -126 0
-124 -125 0
-124 -126 0
-125 -126 0
127 128 129 130 131 132 133 0
-127 -128 0
-127 -129 0
-127 -130 0
-127 -131 0
-127 -132 0
-127 -133 0
-128 -129 0
-128 -130 0
-128 -131 0
-128 -132 0
-128 -133 0
-129 -130 0
-129 -131 0
-129 -132 0
-129 -133 0
-130 -131 0
-130 -132 0
-130 -133 0
-131 -132 0
-131 -133 0
-132 -133 0
134 135 136 137 138 139 140 0
-134 -135 0
-134 -136 0
-134 -137 0
-134 -138 0
-134 -139 0
-134 -140 0
-135 -136 0
-135 -137 0
-135 -138 0
-135 -139 0
-135 -140 0
-136 -137 0
-136 -138 0
-136 -139 0
-136 -140 0
-137 -138 0
-137 -139 0
-137 -140 0
-138 -139 0
-138 -140 0
-139 -140 0
141 142 143 144 145 146 147 0
-141 -142 0
-141 -143 0
-141 -144 0
-141 -145 0
-141 -146 0
-141 -147 0
-142 -143 0
-142 -144 0
-142 -145 0
-142 -146 0
-142 -147 0
-143 -144 0
-143 -145 0
-143 -146 0
-143 -147 0
-144 -145 0
-144 -146 0
-144 -147 0
-145 -146 0
-145 -147 0
-146 -147 0
148 149 150 151 152 153 154 0
-148 -149 0
-148 -150 0
-148 -151 0
-148 -152 0
-148 -153 0
-148 -154 0
-149 -150 0
-149 -151 0
-149 -152 0
-149 -153 0
-149 -154 0
-150 -151 0
-150 -152 0
-150 -153 0
-150 -154 0
-151 -152 0
-151 -153 0
-151 -154 0
-152 -153 0
-152 -154 0
-153 -154 0
155 156 157 158 159 160 161 0
-155 -156 0
-155 -157 0
-155 -158 0
-155 -159 0
-155 -160 0
-155 -161 0
-156 -157 0
-156 -158 0
-156 -159 0
-156 -160 0
-156 -161 0
-157 -158 0
-157 -159 0
-157 -160 0
-157 -161 0
-158 -159 0
-158 -160 0
-158 -161 0
-159 -160 0
-159 -161 0
-160 -161 0
162 163 164 165 166 167 168 0
-162 -163 0
-162 -164 0
-162 -165 0
-162 -166 0
-162 -167 0
-162 -168 0
-163 -164 0
-163 -165 0
-163 -166 0
-163 -167 0
-163 -168 0
-164 -165 0
-164 -166 0
-164 -167 0
-164 -168 0
-165 -166 0
-165 -167 0
-165 -168 0
-166 -167 0
-166 -168 0
-167 -168 0
169 170 171 172 173 174 175 0
-169 -170 0
-169 -171 0
-169 -172 0
-169 -173 0
-169 -174 0
-169 -175 0
-170 -171 0
-170 -172 0
-170 -173 0
-170 -174 0
-170 -175 0
-171 -172 0
-171 -173 0
-171 -174 0
-171 -175 0
-172 -173 0
-172 -174 0
-172 -175 0
-173 -174 0
-173 -175 0
-174 -175 0
176 177 178 179 180 181 182 0
-176 -177 0
-176 -178 0
-176 -179 0
-176 -180 0
-176 -181 0
-176 -182 0
-177 -178 0
-177 -179 0
-177 -180 0
-177 -181 0
-177 -182 0
-178 -179 0
-178 -180 0
-178 -181 0
-178 -182 0
-179 -180 0
-179 -181 0
-179 -182 0
-180 -181 0
-180 -182 0
-181 -182 0
183 184 185 186 187 188 189 0
-183 -184 0
-183 -185 0
-183 -186 0
-183 -187 0
-183 -188 0
-183 -189 0
-184 -185 0
-184 -186 0
-184 -187 0
-184 -188 0
-184 -189 0
-185 -186 0
-185 -187 0
-185 -188 0
-185 -189 0
-186 -187 0
-186 -188 0
-186 -189 0
-187 -188 0
-187 -189 0
-188 -189 0
190 191 192 193 194 195 196 0
-190 -191 0
-190 -192 0
-190 -193 0
-190 -194 0
-190 -195 0
-190 -196 0
-191 -192 0
-191 -193 0
-191 -194 0
-191 -195 0
-191 -196 0
-192 -193 0
-192 -194 0
-192 -195 0
-192 -196 0
-193 -194 0
-193 -195 0
-193 -196 0
-194 -195 0
-194 -196 0
-195 -196 0
197 198 199 200 201 202 203 0
-197 -198 0
-197 -199 0
-197 -200 0
-197 -201 0
-197 -202 0
-197 -203 0
-198 -199 0
-198 -200 0
-198 -201 0
-198 -202 0
-198 -203 0
-199 -200 0
-199 -201 0
-199 -202 0
-199 -203 0
-200 -201 0
-200 -202 0
-200 -203 0
-201 -202 0
-201 -203 0
-202 -203 0
204 205 206 207 208 209 210 0
-204 -205 0
-204 -206 0
-204 -207 0
-204 -208 0
-204 -209 0
-204 -210 0
-205 -206 0
-205 -207 0
-205 -208 0
-205 -209 0
-205 -210 0
-206 -207 0
-206 -208 0
-206 -209 0
-206 -210 0
-207 -208 0
-207 -209 0
-207 -210 0
-208 -209 0
-208 -210 0
-209 -210 0
211 212 213 214 215 216 217 0
-211 -212 0
-211 -213 0
-211 -214 0
-211 -215 0
-211 -216 0
-211 -217 0
-212 -213 0
-212 -214 0
-212 -215 0
-212 -216 0
-212 -217 0
-213 -214 0
-213 -215 0
-213 -216 0
-213 -217 0
-214 -215 0
-214 -216 0
-214 -217 0
-215 -216 0
-215 -217 0
-216 -217 0
218 219 220 221 222 223 224 0
-218 -219 0
-218 -220 0
-218 -221 0
-218 -222 0
-218 -223 0
-218 -224 0
-219 -220 0
-219 -221 0
-219 -222 0
-219 -223 0
-219 -224 0
-220 -221 0
-220 -222 0
-220 -223 0
-220 -224 0
-221 -222 0
-221 -223 0
-221 -224 0
-222 -223 0
-222 -224 0
-223 -224 0
225 226 227 228 229 230 231 0
-225 -226 0
-225 -227 0
-225 -228 0
-225 -229 0
-225 -230 0
-225 -231 0
-226 -227 0
-226 -228 0
-226 -229 0
-226 -230 0
-226 -231 0
-227 -228 0
-227 -229 0
-227 -230 0
-227 -231 0
-228 -229 0
-228 -230 0
-228 -231 0
-229 -230 0
-229 -231 0
-230 -231 0
232 233 234 235 236 237 238 0
-232 -233 0
-232 -234 0
-232 -235 0
-232 -236 0
-232 -237 0
-232 -238 0
-233 -234 0
-233 -235 0
-233 -236 0
-233 -237 0
-233 -238 0
-234 -235 0
-234 -236 0
-234 -237 0
-234 -238 0
-235 -236 0
-235 -237 0
-235 -238 0
-236 -237 0
-236 -238 0
-237 -238 0
239 240 241 242 243 244 245 0
-239 -240 0
-239 -241 0
-239 -242 0
-239 -243 0
-239 -244 0
-239 -245 0
-240 -241 0
-240 -242 0
-240 -243 0
-240 -244 0
-240 -245 0
-241 -242 0
-241 -243 0
-241 -244 0
-241 -245 0
-242 -243 0
-242 -244 0
-242 -245 0
-243 -244 0
-243 -245 0
-244 -245 0
